# domain size 
variable        xsize equal 20
# for reverce poiseuille
variable        ysize equal 50
if "${ndim}==3" then &
"variable        zsize equal 10"

dimension       ${ndim}
atom_style	bond

