# domain size 
variable        xsize equal 20
# for Marco's parameters 4x2.5
variable        ysize equal 4.0/2.5*${xsize}
if "${ndim}==3" then &
"variable        zsize equal 10"

variable        rcyl equal ${xsize}/2.5*1.0
atom_style	bond
