# domain size 
variable        xsize equal 120
# for reverce poiseuille
variable        ysize equal 25
if "${ndim}==3" then &
"variable        zsize equal 12"

atom_style	bond
