# log to the screen and to the log.lammps file
echo     both

atom_style         meso/trans

# move one atom with a constant acceleration
units           si

read_restart    meso.restart.1
write_data      meso.data.after_restart
