units		lj
atom_style	bond
atom_modify	sort 1 1

lattice		fcc 0.8442
read_data       chain.in
mass		1 1.0

region		nopolymer block 1 2 1 2 1 2
velocity	all create 1.44 87287 loop geom

dump myDump all image 1 dump.*.ppm type type &
view 0 0 bond type 0.1 atom no zoom 8 size 880 200

run		0
