# all atoms are the same
pair_coeff * * ${adpd} ${gamma} ${cutoff}