# domain size 
variable        xsize equal 50
# for wall add to 6 extra layers
variable        ysize equal 25+6
if "${ndim}==3" then &
"variable        zsize equal 10"

atom_style	bond

