# domain size 
variable        xsize equal 20
# for free polymers
variable        ysize equal 20
if "${ndim}==3" then &
"variable        zsize equal 20"
atom_style	bond
