variable        ndim  index 2

echo            both
units		si
dimension       ${ndim}
atom_style	atomic
comm_modify vel yes
