variable        ndim  index 2

comm_modify vel yes
echo            both
units		si
dimension       ${ndim}
atom_style	atomic
